Route 1: 163 28 6 47 14 132 153 49 142 92 4 182 57 133 195 100 37 9 12 59 143 173 188 139 29 89 54 140 134 58 113 191 176 69 105 71 88 121 144 115 11 87 17 174 76 60 8 13 97 30 82 67 64 154
Route 2: 147 16 24 131 169 152 167 190 179 18 196 102 124 43 180 150 187 171 78 130 162 63 103 200 48 156 183 7 15 68 110 3 136 184 51 91 198 27 80 145 116 95 44 178 90 73 79 126 93 146 19 193 39 120 96 34 2 135 185 141 1 75 175
Route 3: 42 172 197 5 149 72 161 61 119 98 40 177 65 21 165 85 45 56 112 160 108 38 32 109 189 125 94 151 192 101 74 52 23 117 114 86 107 166 129 22 194 41 55 50 137 66 33 81 157 158 70 148 83 36
Route 4: 155 127 118 199 84 181 35 164 104 25 77 170 138 46 159 62 122 10 26 20 186 111 106 123
Route 5: 128 168 99 53 31
Vehicles: 5
Distance: 3962.23
